c description: Random 3-CNF over 15 variables and 95 clauses
c generator: CNFgen (0.9.0)
c copyright: (C) 2012-2020 Massimo Lauria <massimo.lauria@uniroma1.it>
c url: https://massimolauria.net/cnfgen
c
p cnf 15 95
3 9 -15 0
4 -6 -15 0
-2 4 -9 0
1 -5 -8 0
5 -6 -10 0
3 6 -12 0
3 10 -15 0
-5 -7 13 0
-8 11 13 0
4 6 -7 0
5 7 -8 0
-6 -10 13 0
4 -5 12 0
6 12 -13 0
-4 11 12 0
3 12 -15 0
-6 10 -12 0
9 10 -14 0
-2 3 11 0
1 -2 -7 0
-2 9 11 0
6 -14 15 0
-1 9 11 0
-1 -2 -3 0
-6 -10 11 0
8 13 14 0
7 9 -15 0
1 -13 14 0
8 9 -12 0
-10 12 -14 0
3 -5 10 0
-2 6 13 0
-7 -11 13 0
2 -12 -15 0
-1 2 -8 0
-7 10 12 0
-1 -6 -15 0
-3 -7 -15 0
-1 4 14 0
-7 -13 14 0
5 -6 -12 0
4 13 -14 0
4 7 -12 0
-1 -2 9 0
5 9 12 0
7 -12 -13 0
3 -10 -12 0
-2 -4 10 0
-2 10 14 0
-2 8 11 0
-4 6 12 0
-5 -6 -9 0
-2 -3 -10 0
-4 -6 -13 0
-2 -7 14 0
-6 11 14 0
2 -8 9 0
4 7 -8 0
11 -13 -14 0
6 7 13 0
4 -8 14 0
1 12 15 0
2 9 -11 0
3 -9 -11 0
1 -4 -13 0
-5 11 -13 0
-7 -8 -14 0
2 8 -10 0
-1 -5 -10 0
3 -4 -10 0
-4 -5 8 0
6 -8 15 0
-4 -9 -10 0
2 -14 -15 0
-3 -4 -8 0
-3 -12 -13 0
3 5 -12 0
9 11 12 0
-5 -8 13 0
1 -3 4 0
-5 6 13 0
-9 13 15 0
1 -4 13 0
-11 14 15 0
1 8 -11 0
2 -4 -11 0
5 8 14 0
-6 14 15 0
-5 10 -11 0
-2 5 -14 0
7 10 -14 0
5 6 7 0
9 -10 -12 0
13 14 -15 0
2 -3 -4 0